g3 1 1 0	# problem em_5
 5 0 1 0 0	# vars, constraints, objectives, ranges, eqns
 0 1	# nonlinear constraints, objectives
 0 0	# network constraints: nonlinear, linear
 0 5 0	# nonlinear vars in constraints, objectives, both
 0 0 0 1	# linear network variables; functions; arith, flags
 0 0 0 0 0	# discrete variables: binary, integer, nonlinear (b,c,o)
 0 5	# nonzeros in Jacobian, gradients
 0 0	# max name lengths: constraints, variables
 0 0 0 0 5	# common exprs: b,c,o,c1,o1
V5 2 1
0 0.8660254037844387
1 -0.49999999999999994
n0
V6 2 1
1 0.49999999999999994
2 0.8660254037844387
n0
V7 2 1
2 0.8660254037844387
3 -0.49999999999999994
n0
V8 2 1
3 0.49999999999999994
4 0.8660254037844387
n0
V9 1 1
4 1
n0
O0 0
o16
o54
5
o2
o41
v5
o5
o41
o3
o5
v5
n2
n3.141592653589793
n20
o2
o41
v6
o5
o41
o3
o2
n2
o5
v6
n2
n3.141592653589793
n20
o2
o41
v7
o5
o41
o3
o2
n3
o5
v7
n2
n3.141592653589793
n20
o2
o41
v8
o5
o41
o3
o2
n4
o5
v8
n2
n3.141592653589793
n20
o2
o41
v9
o5
o41
o3
o2
n5
o5
v9
n2
n3.141592653589793
n20
b
0 0 3.141592653589793
0 0 3.141592653589793
0 0 3.141592653589793
0 0 3.141592653589793
0 0 3.141592653589793
k4
0
0
0
0
G0 5
0 0
1 0
2 0
3 0
4 0
